\ Model MWBM
\ LP format - for model browsing. Use MPS format to capture full model detail.
Minimize
  20 x[1,7] + 38 x[1,8] + 17 x[2,7] + 19 x[2,8] + 70 x[2,9] + 15 x[3,6]
   + 30 x[3,7] + 40 x[3,8] + 11 x[3,10] + 31 x[4,8] + 17 x[5,8] + 50 x[5,9]
   + 32 x[5,10]
Subject To
 -[1]: x[1,7] + x[1,8] = 1
 -[2]: x[2,7] + x[2,8] + x[2,9] = 1
 -[3]: x[3,6] + x[3,7] + x[3,8] + x[3,10] = 1
 -[4]: x[4,8] = 1
 -[5]: x[5,8] + x[5,9] + x[5,10] = 1
 -[7]: x[1,7] + x[2,7] + x[3,7] = 1
 -[8]: x[1,8] + x[2,8] + x[3,8] + x[4,8] + x[5,8] = 1
 -[9]: x[2,9] + x[5,9] = 1
 -[6]: x[3,6] = 1
 -[10]: x[3,10] + x[5,10] = 1
Bounds
Binaries
 x[1,7] x[1,8] x[2,7] x[2,8] x[2,9] x[3,6] x[3,7] x[3,8] x[3,10] x[4,8]
 x[5,8] x[5,9] x[5,10]
End
